% Número total de personas
n = 50;

% Número de opiniones posibles
m = 5;

% Distribución inicial de personas por opinión
p = [15, 15, 17, 0, 3];

% Valores de las opiniones
v = [0.235, 0.323, 0.545, 0.726, 0.824];

% Costos extras al mover a opiniones vacías
ce = [16.000, 8.847, 17.041, 14.349, 11.190];

% Matriz de costos de mover de una opinión a otra
C = array2d(1..5, 1..5,
  [
    0.000,    1.986,    1.945,    3.474,    5.430,
    3.413,    0.000,    3.911,    0.081,    4.179,
    3.608,    5.759,    0.000,    1.321,    1.304,
    2.820,    2.507,    0.681,    0.000,    0.116,
    4.116,    0.109,    5.858,    5.779,    0.000
  ]);

% Costo total máximo permitido
C_max = 15.370;

% Número máximo de movimientos permitidos
M_max = 7;
